\Problem name: obj

Minimize
OBJROW: X0 + X1 + X2 + X3 + X4 + X5 + X6 + X7 + X8 + X9
 + X10 + X11 + X12 + X13 + X14 + X15 + X16 + X17 + X18 + X19
 + X20 + X21 + X22 + X23 + X24 + X25 + X26
Subject To
R0:  X0 + X1 + X2 + X3 + X6 + X9 + X18 >= 1
R1:  X0 + X1 + X2 + X4 + X7 + X10 + X19 >= 1
R2:  X0 + X1 + X2 + X5 + X8 + X11 + X20 >= 1
R3:  X0 + X3 + X4 + X5 + X6 + X12 + X21 >= 1
R4:  X1 + X3 + X4 + X5 + X7 + X13 + X22 >= 1
R5:  X2 + X3 + X4 + X5 + X8 + X14 + X23 >= 1
R6:  X0 + X3 + X6 + X7 + X8 + X15 + X24 >= 1
R7:  X1 + X4 + X6 + X7 + X8 + X16 + X25 >= 1
R8:  X2 + X5 + X6 + X7 + X8 + X17 + X26 >= 1
R9:  X0 + X9 + X10 + X11 + X12 + X15 + X18 >= 1
R10:  X1 + X9 + X10 + X11 + X13 + X16 + X19 >= 1
R11:  X2 + X9 + X10 + X11 + X14 + X17 + X20 >= 1
R12:  X3 + X9 + X12 + X13 + X14 + X15 + X21 >= 1
R13:  X4 + X10 + X12 + X13 + X14 + X16 + X22 >= 1
R14:  X5 + X11 + X12 + X13 + X14 + X17 + X23 >= 1
R15:  X6 + X9 + X12 + X15 + X16 + X17 + X24 >= 1
R16:  X7 + X10 + X13 + X15 + X16 + X17 + X25 >= 1
R17:  X8 + X11 + X14 + X15 + X16 + X17 + X26 >= 1
R18:  X0 + X9 + X18 + X19 + X20 + X21 + X24 >= 1
R19:  X1 + X10 + X18 + X19 + X20 + X22 + X25 >= 1
R20:  X2 + X11 + X18 + X19 + X20 + X23 + X26 >= 1
R21:  X3 + X12 + X18 + X21 + X22 + X23 + X24 >= 1
R22:  X4 + X13 + X19 + X21 + X22 + X23 + X25 >= 1
R23:  X5 + X14 + X20 + X21 + X22 + X23 + X26 >= 1
R24:  X6 + X15 + X18 + X21 + X24 + X25 + X26 >= 1
R25:  X7 + X16 + X19 + X22 + X24 + X25 + X26 >= 1
R26:  X8 + X17 + X20 + X23 + X24 + X25 + X26 >= 1
R0000027:  -6 X0 -6 X1 -6 X2 -6 X3 -6 X4 -6 X5 -6 X6 -6 X7 -6 X8 -6 X9
 -6 X10 -6 X11 -6 X12 -6 X13 -6 X14 -6 X15 -6 X16 -6 X17 -6 X18 -6 X19
 -6 X20 -6 X21 -6 X22 -6 X23 -6 X24 -6 X25 -6 X26 <= -24
Bounds
 0 <= X0 <= 1
 0 <= X1 <= 1
 0 <= X2 <= 1
 0 <= X3 <= 1
 0 <= X4 <= 1
 0 <= X5 <= 1
 0 <= X6 <= 1
 0 <= X7 <= 1
 0 <= X8 <= 1
 0 <= X9 <= 1
 0 <= X10 <= 1
 0 <= X11 <= 1
 0 <= X12 <= 1
 0 <= X13 <= 1
 0 <= X14 <= 1
 0 <= X15 <= 1
 0 <= X16 <= 1
 0 <= X17 <= 1
 0 <= X18 <= 1
 0 <= X19 <= 1
 0 <= X20 <= 1
 0 <= X21 <= 1
 0 <= X22 <= 1
 0 <= X23 <= 1
 0 <= X24 <= 1
 0 <= X25 <= 1
 0 <= X26 <= 1
Integers
X0 X1 X2 X3 X4 X5 X6 X7 X8 X9 
X10 X11 X12 X13 X14 X15 X16 X17 X18 X19 
X20 X21 X22 X23 X24 X25 X26 
End
